
<<< setup


<<< generate

Version identifier: 22.1.1.0 | 2022-11-28 | 9160aff4d
CPXPARAM_TimeLimit                               1800
Found incumbent of value 0.000000 after 0.00 sec. (0.55 ticks)
Tried aggregator 1 time.
MIP Presolve eliminated 185 rows and 0 columns.
Reduced MIP has 20930 rows, 17020 columns, and 75348 nonzeros.
Reduced MIP has 16836 binaries, 184 generals, 0 SOSs, and 0 indicators.
Presolve time = 0.01 sec. (28.17 ticks)
Probing time = 0.00 sec. (7.02 ticks)
Tried aggregator 1 time.
Detecting symmetries...
Reduced MIP has 20930 rows, 17020 columns, and 75348 nonzeros.
Reduced MIP has 16836 binaries, 184 generals, 0 SOSs, and 0 indicators.
Presolve time = 0.12 sec. (255.29 ticks)
Probing time = 0.00 sec. (7.01 ticks)
Clique table members: 2476.
MIP emphasis: balance optimality and feasibility.
MIP search method: dynamic search.
Parallel mode: deterministic, using up to 8 threads.
Root relaxation solution time = 0.16 sec. (410.43 ticks)

        Nodes                                         Cuts/
   Node  Left     Objective  IInf  Best Integer    Best Bound    ItCnt     Gap

*     0+    0                            0.0000     5000.0000              --- 
*     0+    0                         1681.0000     5000.0000           197.44%
      0     0     5000.0000  6054     1681.0000     5000.0000     9629  197.44%
*     0+    0                         4386.0000     5000.0000            14.00%
      0     0     5000.0000  2419     4386.0000     Cuts: 777    11032   14.00%
      0     0     5000.0000  2363     4386.0000     Cuts: 143    11800   14.00%
*     0+    0                         4485.0000     5000.0000            11.48%
      0     0     5000.0000  2234     4485.0000      Cuts: 78    12354   11.48%
*     0+    0                         4566.0000     5000.0000             9.51%
      0     0        cutoff           4566.0000     5000.0000    12354    9.51%
      0     0     5000.0000  2149     4566.0000      Cuts: 87    12810    9.51%
      0     0     5000.0000  2097     4566.0000      Cuts: 46    13106    9.51%
*     0+    0                         4745.0000     5000.0000             5.37%
      0     0     5000.0000  1965     4745.0000      Cuts: 43    13339    5.37%
*     0+    0                         4761.0000     5000.0000             5.02%
      0     0        cutoff           4761.0000     5000.0000    13339    5.02%
      0     0     5000.0000  1962     4761.0000      Cuts: 61    13631    5.02%
*     0+    0                         4862.0000     5000.0000             2.84%
      0     0     5000.0000  1839     4862.0000      Cuts: 36    13904    2.84%
      0     0     5000.0000  1797     4862.0000      Cuts: 24    14082    2.84%
      0     0     5000.0000  1821     4862.0000  ZeroHalf: 11    14624    2.84%
*     0+    0                         4864.0000     5000.0000             2.80%
*     0+    0                         4869.0000     5000.0000             2.69%
      0     0        cutoff           4869.0000     5000.0000    14624    2.69%
      0     2     5000.0000  1821     4869.0000     5000.0000    14624    2.69%
Elapsed time = 7.05 sec. (12324.68 ticks, tree = 0.02 MB, solutions = 10)
      2     4     5000.0000  1843     4869.0000     5000.0000    15889    2.69%
      6     5     5000.0000  1896     4869.0000     5000.0000    16298    2.69%
     13     9     5000.0000  1698     4869.0000     5000.0000    18909    2.69%
     31    20     5000.0000  1702     4869.0000     5000.0000    28336    2.69%
     52    35     5000.0000  2000     4869.0000     5000.0000    36923    2.69%
     77    63     5000.0000  1749     4869.0000     5000.0000    51114    2.69%
    100    90     5000.0000  1871     4869.0000     5000.0000    61941    2.69%
    134   106     5000.0000  1816     4869.0000     5000.0000    68555    2.69%
    174   127     5000.0000  1320     4869.0000     5000.0000    72897    2.69%
    344   268     5000.0000  1589     4869.0000     5000.0000   101046    2.69%
Elapsed time = 9.17 sec. (15484.26 ticks, tree = 2.32 MB, solutions = 10)
    465   420     5000.0000  1226     4869.0000     5000.0000   132051    2.69%
    649   578     5000.0000  1100     4869.0000     5000.0000   162102    2.69%
    883   741     5000.0000  1217     4869.0000     5000.0000   186012    2.69%
   1169   866     5000.0000  1262     4869.0000     5000.0000   203616    2.69%
   1484  1180     5000.0000  1348     4869.0000     5000.0000   235687    2.69%
*  1496+  997                         4900.0000     5000.0000             2.04%
   1778  1305     5000.0000  1120     4900.0000     5000.0000   245862    2.04%
*  2041+ 1522                         4929.0000     5000.0000             1.44%
   2112  1573     5000.0000   936     4929.0000     5000.0000   272664    1.44%
*  2297+ 1730                         4935.0000     5000.0000             1.32%
   2414  1929    infeasible           4935.0000     5000.0000   307972    1.32%
   2732  2212     5000.0000  1032     4935.0000     5000.0000   327171    1.32%
*  2858+ 2034                         4945.0000     5000.0000             1.11%
*  2914+ 2303                         4952.0000     5000.0000             0.97%
*  3121+ 2335                         4981.0000     5000.0000             0.38%
   3134  2493     5000.0000   844     4981.0000     5000.0000   343165    0.38%
Elapsed time = 14.63 sec. (25032.87 ticks, tree = 20.92 MB, solutions = 18)
*  3372+ 2667                         4986.0000     5000.0000             0.28%
   3466  2771     5000.0000   499     4986.0000     5000.0000   358851    0.28%
   3728  2950    infeasible           4986.0000     5000.0000   368970    0.28%
*  3817+ 2982                         4990.0000     5000.0000             0.20%
   4048  3154    infeasible           4990.0000     5000.0000   380312    0.20%
   4388  3351     5000.0000   266     4990.0000     5000.0000   389446    0.20%
*  4390+ 3256                         4997.0000     5000.0000             0.06%

Performing restart 1

Repeating presolve.
Tried aggregator 1 time.
MIP Presolve eliminated 0 rows and 58 columns.
Reduced MIP has 20930 rows, 16962 columns, and 70070 nonzeros.
Reduced MIP has 16778 binaries, 184 generals, 0 SOSs, and 0 indicators.
Presolve time = 0.02 sec. (47.30 ticks)
Tried aggregator 1 time.
Reduced MIP has 20930 rows, 16962 columns, and 70070 nonzeros.
Reduced MIP has 16778 binaries, 184 generals, 0 SOSs, and 0 indicators.
Presolve time = 0.17 sec. (319.58 ticks)
Represolve time = 0.22 sec. (411.83 ticks)
*  4636+    0                         4998.0000     5000.0000             0.04%
   4636     0     5000.0000  2580     4998.0000    Cuts: 3980   411216    0.04%
*  4636+    0                         5000.0000     5000.0000             0.00%
   4636     0        cutoff           5000.0000     5000.0000   413052    0.00%

Cover cuts applied:  342
Implied bound cuts applied:  89
Flow cuts applied:  150
Mixed integer rounding cuts applied:  4023
Zero-half cuts applied:  138
Gomory fractional cuts applied:  8

Root node processing (before b&c):
  Real time             =    6.97 sec. (12314.31 ticks)
Parallel b&c, 8 threads:
  Real time             =   14.32 sec. (26010.36 ticks)
  Sync time (average)   =    1.65 sec.
  Wait time (average)   =    0.00 sec.
                          ------------
Total (root+branch&cut) =   21.29 sec. (38324.68 ticks)

<<< solve


OBJECTIVE: 5000

<<< post process


<<< done

